&BANDS
    prefix='GaSegamma'
    outdir='/share/inl/marcel/TB-SO/GaSegamma_outdir'
    filband ='GaSegamma.bands.dat'
/
