&control
    calculation = 'scf'
    prefix = 'GaSgamma'
    outdir = '/share/inl/marcel/TB-SO/GaSgamma_outdir'
    pseudo_dir = '/home/mclaro/pseudo/ONCVPSP/sg15'
    etot_conv_thr = 1e-6
    forc_conv_thr = 4e-4
    verbosity     = 'high'
/
&system
    ibrav=0, A= 3.5787063297455 
    nat = 12
    ntyp = 2
    ecutwfc=150,
    ecutrho=600,
    input_dft = 'sla+pw+psx+psc'
    occupations = 'fixed',
    
        !SOC
    noncolin = .TRUE.
    lspinorb = .TRUE.
    starting_magnetization(1) = 0
    starting_magnetization(2) = 0
   
/
&electrons
    conv_thr=7e-10
    mixing_mode      = 'plain'
    mixing_beta      = 0.7
/
&ions
/
&cell
    cell_dofree='all'
/

CELL_PARAMETERS {alat}
  1.000000000000000   0.000000000000000   0.000000000000000 
 -0.500000000000000   0.866025403784439   0.000000000000000 
  0.000000000000001   0.000000000000001   6.169243839 

ATOMIC_SPECIES
  Ga   69.72300  Ga_ONCV_PBE_fr.upf
  S   32.065  S_ONCV_PBE_fr.upf

ATOMIC_POSITIONS {crystal}
S        0.000000000   0.000000000   0.236950411
S        0.333333333   0.666666667   0.096013726
S        0.666666667   0.333333333   0.570398700
S       -0.000000000  -0.000000000   0.429234448
S        0.333333333   0.666666667   0.903793690
S        0.666666667   0.333333333   0.762617371
Ga       0.666666667   0.333333333   0.282309254
Ga      -0.000000000  -0.000000000   0.050664757
Ga       0.333333333   0.666666667   0.615746965
Ga       0.666666667   0.333333333   0.383864226
Ga       0.000000000   0.000000000   0.949140562
Ga       0.333333333   0.666666667   0.717265891

K_POINTS (automatic)
  15 15 5 0 0 0

