&control
    calculation = 'bands'
    prefix = 'GaTegamma'
    outdir = '/share/inl/marcel/TB-SO/GaTegamma_outdir'
    pseudo_dir = '/home/mclaro/pseudo/ONCVPSP/sg15'
    etot_conv_thr = 1e-6
    forc_conv_thr = 4e-4
    verbosity     = 'high'
/
&system
    ibrav=4, celldm(1)=7.686797952, celldm(3)=6.473376908 
    nat = 12
    ntyp = 2
    nbnd = 120
    ecutwfc=150,
    ecutrho=600,
    input_dft = 'sla+pw+psx+psc'
    occupations = 'fixed',
    
        !SOC
    noncolin = .TRUE.
    lspinorb = .TRUE.
    starting_magnetization(1) = 0
    starting_magnetization(2) = 0
   
/
&electrons
    conv_thr=7e-10
    mixing_mode      = 'plain'
    mixing_beta      = 0.7
/
&ions
/
&cell
    cell_dofree='all'
/

ATOMIC_SPECIES
  Ga   69.72300  Ga_ONCV_PBE_fr.upf
  Te   127.6000  Te_ONCV_PBE_fr.upf

ATOMIC_POSITIONS {crystal}
Te       0.000000000   0.000000000   0.234719106
Te       0.333333333   0.666666667   0.098295385
Te       0.666666667   0.333333333   0.568161400
Te      -0.000000000  -0.000000000   0.431525211
Te       0.333333333   0.666666667   0.901510684
Te       0.666666667   0.333333333   0.764971774
Ga       0.666666667   0.333333333   0.284824701
Ga      -0.000000000  -0.000000000   0.048075876
Ga       0.333333333   0.666666667   0.618270064
Ga       0.666666667   0.333333333   0.381297980
Ga       0.000000000   0.000000000   0.951607060
Ga       0.333333333   0.666666667   0.714740760 

K_POINTS (crystal)
        160
        0.0000000000    0.0000000000    0.5000000000    1.0
        0.0000000000    0.0185185185    0.5000000000    1.0
        0.0000000000    0.0370370370    0.5000000000    1.0
        0.0000000000    0.0555555556    0.5000000000    1.0
        0.0000000000    0.0740740741    0.5000000000    1.0
        0.0000000000    0.0925925926    0.5000000000    1.0
        0.0000000000    0.1111111111    0.5000000000    1.0
        0.0000000000    0.1296296296    0.5000000000    1.0
        0.0000000000    0.1481481481    0.5000000000    1.0
        0.0000000000    0.1666666667    0.5000000000    1.0
        0.0000000000    0.1851851852    0.5000000000    1.0
        0.0000000000    0.2037037037    0.5000000000    1.0
        0.0000000000    0.2222222222    0.5000000000    1.0
        0.0000000000    0.2407407407    0.5000000000    1.0
        0.0000000000    0.2592592593    0.5000000000    1.0
        0.0000000000    0.2777777778    0.5000000000    1.0
        0.0000000000    0.2962962963    0.5000000000    1.0
        0.0000000000    0.3148148148    0.5000000000    1.0
        0.0000000000    0.3333333333    0.5000000000    1.0
        0.0000000000    0.3518518519    0.5000000000    1.0
        0.0000000000    0.3703703704    0.5000000000    1.0
        0.0000000000    0.3888888889    0.5000000000    1.0
        0.0000000000    0.4074074074    0.5000000000    1.0
        0.0000000000    0.4259259259    0.5000000000    1.0
        0.0000000000    0.4444444444    0.5000000000    1.0
        0.0000000000    0.4629629630    0.5000000000    1.0
        0.0000000000    0.4814814815    0.5000000000    1.0
        0.0000000000    0.5000000000    0.5000000000    1.0
        0.0222220000    0.4888886667    0.5000000000    1.0
        0.0444440000    0.4777773333    0.5000000000    1.0
        0.0666660000    0.4666660000    0.5000000000    1.0
        0.0888880000    0.4555546667    0.5000000000    1.0
        0.1111100000    0.4444433333    0.5000000000    1.0
        0.1333320000    0.4333320000    0.5000000000    1.0
        0.1555540000    0.4222206667    0.5000000000    1.0
        0.1777760000    0.4111093333    0.5000000000    1.0
        0.1999980000    0.3999980000    0.5000000000    1.0
        0.2222200000    0.3888866667    0.5000000000    1.0
        0.2444420000    0.3777753333    0.5000000000    1.0
        0.2666640000    0.3666640000    0.5000000000    1.0
        0.2888860000    0.3555526667    0.5000000000    1.0
        0.3111080000    0.3444413333    0.5000000000    1.0
        0.3333300000    0.3333300000    0.5000000000    1.0
        0.3225774194    0.3225774194    0.5000000000    1.0
        0.3118248387    0.3118248387    0.5000000000    1.0
        0.3010722581    0.3010722581    0.5000000000    1.0
        0.2903196774    0.2903196774    0.5000000000    1.0
        0.2795670968    0.2795670968    0.5000000000    1.0
        0.2688145161    0.2688145161    0.5000000000    1.0
        0.2580619355    0.2580619355    0.5000000000    1.0
        0.2473093548    0.2473093548    0.5000000000    1.0
        0.2365567742    0.2365567742    0.5000000000    1.0
        0.2258041935    0.2258041935    0.5000000000    1.0
        0.2150516129    0.2150516129    0.5000000000    1.0
        0.2042990323    0.2042990323    0.5000000000    1.0
        0.1935464516    0.1935464516    0.5000000000    1.0
        0.1827938710    0.1827938710    0.5000000000    1.0
        0.1720412903    0.1720412903    0.5000000000    1.0
        0.1612887097    0.1612887097    0.5000000000    1.0
        0.1505361290    0.1505361290    0.5000000000    1.0
        0.1397835484    0.1397835484    0.5000000000    1.0
        0.1290309677    0.1290309677    0.5000000000    1.0
        0.1182783871    0.1182783871    0.5000000000    1.0
        0.1075258065    0.1075258065    0.5000000000    1.0
        0.0967732258    0.0967732258    0.5000000000    1.0
        0.0860206452    0.0860206452    0.5000000000    1.0
        0.0752680645    0.0752680645    0.5000000000    1.0
        0.0645154839    0.0645154839    0.5000000000    1.0
        0.0537629032    0.0537629032    0.5000000000    1.0
        0.0430103226    0.0430103226    0.5000000000    1.0
        0.0322577419    0.0322577419    0.5000000000    1.0
        0.0215051613    0.0215051613    0.5000000000    1.0
        0.0107525806    0.0107525806    0.5000000000    1.0
        0.0000000000    0.0000000000    0.5000000000    1.0
        0.0000000000    0.0000000000    0.3333333333    1.0
        0.0000000000    0.0000000000    0.1666666667    1.0
        0.0000000000    0.0000000000    0.0000000000    1.0
        0.0000000000    0.0185185185    0.0000000000    1.0
        0.0000000000    0.0370370370    0.0000000000    1.0
        0.0000000000    0.0555555556    0.0000000000    1.0
        0.0000000000    0.0740740741    0.0000000000    1.0
        0.0000000000    0.0925925926    0.0000000000    1.0
        0.0000000000    0.1111111111    0.0000000000    1.0
        0.0000000000    0.1296296296    0.0000000000    1.0
        0.0000000000    0.1481481481    0.0000000000    1.0
        0.0000000000    0.1666666667    0.0000000000    1.0
        0.0000000000    0.1851851852    0.0000000000    1.0
        0.0000000000    0.2037037037    0.0000000000    1.0
        0.0000000000    0.2222222222    0.0000000000    1.0
        0.0000000000    0.2407407407    0.0000000000    1.0
        0.0000000000    0.2592592593    0.0000000000    1.0
        0.0000000000    0.2777777778    0.0000000000    1.0
        0.0000000000    0.2962962963    0.0000000000    1.0
        0.0000000000    0.3148148148    0.0000000000    1.0
        0.0000000000    0.3333333333    0.0000000000    1.0
        0.0000000000    0.3518518519    0.0000000000    1.0
        0.0000000000    0.3703703704    0.0000000000    1.0
        0.0000000000    0.3888888889    0.0000000000    1.0
        0.0000000000    0.4074074074    0.0000000000    1.0
        0.0000000000    0.4259259259    0.0000000000    1.0
        0.0000000000    0.4444444444    0.0000000000    1.0
        0.0000000000    0.4629629630    0.0000000000    1.0
        0.0000000000    0.4814814815    0.0000000000    1.0
        0.0000000000    0.5000000000    0.0000000000    1.0
        0.0222220000    0.4888886667    0.0000000000    1.0
        0.0444440000    0.4777773333    0.0000000000    1.0
        0.0666660000    0.4666660000    0.0000000000    1.0
        0.0888880000    0.4555546667    0.0000000000    1.0
        0.1111100000    0.4444433333    0.0000000000    1.0
        0.1333320000    0.4333320000    0.0000000000    1.0
        0.1555540000    0.4222206667    0.0000000000    1.0
        0.1777760000    0.4111093333    0.0000000000    1.0
        0.1999980000    0.3999980000    0.0000000000    1.0
        0.2222200000    0.3888866667    0.0000000000    1.0
        0.2444420000    0.3777753333    0.0000000000    1.0
        0.2666640000    0.3666640000    0.0000000000    1.0
        0.2888860000    0.3555526667    0.0000000000    1.0
        0.3111080000    0.3444413333    0.0000000000    1.0
        0.3333300000    0.3333300000    0.0000000000    1.0
        0.3225774194    0.3225774194    0.0000000000    1.0
        0.3118248387    0.3118248387    0.0000000000    1.0
        0.3010722581    0.3010722581    0.0000000000    1.0
        0.2903196774    0.2903196774    0.0000000000    1.0
        0.2795670968    0.2795670968    0.0000000000    1.0
        0.2688145161    0.2688145161    0.0000000000    1.0
        0.2580619355    0.2580619355    0.0000000000    1.0
        0.2473093548    0.2473093548    0.0000000000    1.0
        0.2365567742    0.2365567742    0.0000000000    1.0
        0.2258041935    0.2258041935    0.0000000000    1.0
        0.2150516129    0.2150516129    0.0000000000    1.0
        0.2042990323    0.2042990323    0.0000000000    1.0
        0.1935464516    0.1935464516    0.0000000000    1.0
        0.1827938710    0.1827938710    0.0000000000    1.0
        0.1720412903    0.1720412903    0.0000000000    1.0
        0.1612887097    0.1612887097    0.0000000000    1.0
        0.1505361290    0.1505361290    0.0000000000    1.0
        0.1397835484    0.1397835484    0.0000000000    1.0
        0.1290309677    0.1290309677    0.0000000000    1.0
        0.1182783871    0.1182783871    0.0000000000    1.0
        0.1075258065    0.1075258065    0.0000000000    1.0
        0.0967732258    0.0967732258    0.0000000000    1.0
        0.0860206452    0.0860206452    0.0000000000    1.0
        0.0752680645    0.0752680645    0.0000000000    1.0
        0.0645154839    0.0645154839    0.0000000000    1.0
        0.0537629032    0.0537629032    0.0000000000    1.0
        0.0430103226    0.0430103226    0.0000000000    1.0
        0.0322577419    0.0322577419    0.0000000000    1.0
        0.0215051613    0.0215051613    0.0000000000    1.0
        0.0107525806    0.0107525806    0.0000000000    1.0
        0.0000000000    0.0000000000    0.0000000000    1.0
        0.0000000000    0.5000000000    0.5000000000    1.0
        0.0000000000    0.5000000000    0.3750000000    1.0
        0.0000000000    0.5000000000    0.2500000000    1.0
        0.0000000000    0.5000000000    0.1250000000    1.0
        0.0000000000    0.5000000000    0.0000000000    1.0
        0.3333300000    0.3333300000    0.5000000000    1.0
        0.3333300000    0.3333300000    0.3750000000    1.0
        0.3333300000    0.3333300000    0.2500000000    1.0
        0.3333300000    0.3333300000    0.1250000000    1.0
        0.3333300000    0.3333300000    0.0000000000    1.0
