&control
    calculation = 'scf'
    prefix = 'InTegamma'
    outdir = '/share/inl/marcel/TB-SO/InTegamma_outdir'
    pseudo_dir = '/home/mclaro/pseudo/ONCVPSP/sg15'
    etot_conv_thr = 1e-6
    forc_conv_thr = 4e-4
    verbosity     = 'high'
/
&system
    ibrav=0, A= 4.3093537811082  
    nat = 12
    ntyp = 2
    ecutwfc=150,
    ecutrho=600,
    input_dft = 'sla+pw+psx+psc'
    occupations = 'fixed',
    
    !SOC
    noncolin = .TRUE.
    lspinorb = .TRUE.
    starting_magnetization(1) = 0
    starting_magnetization(2) = 0

   
/
&electrons
    conv_thr=7e-10
    mixing_mode      = 'plain'
    mixing_beta      = 0.7
/
&ions
/
&cell
    cell_dofree='all'
/

CELL_PARAMETERS {alat}
  1.000000000000000   0.000000000000000   0.000000000000000 
 -0.500000000000000   0.866025403784439   0.000000000000000 
  0.000000000000001   0.000000000000001   6.557072245 

ATOMIC_SPECIES
  In  114.81800  In_ONCV_PBE_fr.upf
  Te   127.6000  Te_ONCV_PBE_fr.upf

ATOMIC_POSITIONS {crystal}
Te       0.000000000   0.000000000   0.227622872
Te       0.333333333   0.666666667   0.105499406
Te       0.666666667   0.333333333   0.560960058
Te      -0.000000000  -0.000000000   0.438819338
Te       0.333333333   0.666666667   0.894297008
Te       0.666666667   0.333333333   0.772163167
In       0.666666667   0.333333333   0.280161230
In      -0.000000000  -0.000000000   0.052718581
In       0.333333333   0.666666667   0.613499575
In       0.666666667   0.333333333   0.386040784
In       0.000000000   0.000000000   0.946836145
In       0.333333333   0.666666667   0.719381836

K_POINTS (automatic)
  15 15 5 0 0 0

